(set-logic QF_S)
(declare-fun _var_0xINPUT_137434_() String)
(declare-fun __woorpje_diseq_pref0_() String)
(declare-fun __woorpje_diseq_suf_l0_() String)
(declare-fun __woorpje_diseq_suf_r0_() String)
(assert (=(str.++ _var_0xINPUT_137434_  "")(str.++ __woorpje_diseq_pref0_  "Q" __woorpje_diseq_suf_l0_  "")) )
(assert (=(str.++  "ZIMmBwQBW8" "")(str.++ __woorpje_diseq_pref0_  "8" __woorpje_diseq_suf_r0_  "")) )
(check-sat)
